# Solution for model GasLib-40
# Objective value = 93.8855380618454
loadshed[innode_1] 0
loadshed[innode_2] 0
loadshed[innode_3] 0
loadshed[innode_4] 0
loadshed[innode_5] 0
loadshed[innode_6] 0
loadshed[innode_7] 0
loadshed[innode_8] 0
loadshed[source_1] 6.5753208046275047e-02
loadshed[source_2] 2.1080490358103043e-01
loadshed[source_3] 3.1731482845200010e-01
loadshed[sink_1] 1
loadshed[sink_2] 0
loadshed[sink_3] 0
loadshed[sink_4] 0
loadshed[sink_5] 0
loadshed[sink_6] 0
loadshed[sink_7] 0
loadshed[sink_8] 0
loadshed[sink_9] 1
loadshed[sink_10] 0
loadshed[sink_11] 0
loadshed[sink_12] 1
loadshed[sink_13] 0
loadshed[sink_14] 0
loadshed[sink_15] 0
loadshed[sink_16] 0
loadshed[sink_17] 0
loadshed[sink_18] 3.3917812773976347e-01
loadshed[sink_19] 0
loadshed[sink_20] 0
loadshed[sink_21] 1
loadshed[sink_22] 4.4359043276143961e-01
loadshed[sink_23] 0
loadshed[sink_24] 9.5800319359889718e-01
loadshed[sink_25] 0
loadshed[sink_26] 0
loadshed[sink_27] 0
loadshed[sink_28] 0
loadshed[sink_29] 0
flow[source_1,sink_3] 1.4769533485296213e+02
flow[innode_1,sink_16] 1.6354166666666970e+01
flow[innode_6,sink_13] 6.5532782618735759e+00
flow[sink_13,sink_14] -9.8008884047930920e+00
flow[sink_14,sink_10] -2.6155055071459760e+01
flow[sink_25,sink_26] 1.5142696193815323e+02
flow[sink_26,sink_9] 0
flow[sink_9,sink_18] 0
flow[sink_26,sink_4] 1.3507279527148660e+02
flow[sink_4,sink_20] 1.1871862860481994e+02
flow[sink_18,sink_6] -1.0807191035921255e+01
flow[sink_25,innode_8] -1.1498700151962576e+02
flow[sink_6,sink_7] -3.6260972500135225e+01
flow[sink_6,sink_22] 9.09961479754729
flow[sink_7,sink_24] 6.8682277135137149e-01
flow[sink_22,sink_1] 0
flow[sink_24,sink_21] 0
flow[sink_21,sink_12] 0
flow[sink_7,sink_5] -5.3301961938153255e+01
flow[sink_5,sink_17] -6.9656128604819926e+01
flow[sink_17,sink_4] 0
flow[sink_17,sink_8] -86.0102952714866
flow[sink_3,sink_23] 16.3541666666697
flow[sink_8,sink_20] -1.0236446193815327e+02
flow[sink_25,sink_20] 0
flow[sink_25,sink_15] -5.9347405347067131e+01
flow[sink_15,sink_29] -4.4548276934237109e+01
flow[sink_29,sink_28] 1.6354166666667879e+01
flow[sink_29,sink_2] 4.7507461746163358e+01
flow[sink_2,sink_15] 3.1153295079496687e+01
flow[sink_29,innode_7] -1.2476407201373502e+02
flow[innode_4,sink_19] 4.1368829525632172e+01
flow[sink_19,innode_3] 3.6705849381743327e+01
flow[innode_4,innode_5] 6.6557058879160991e+01
flow[sink_27,innode_5] -6.6557058879160991e+01
flow[sink_27,sink_19] 5.0202892212494319e+01
flow[sink_10,sink_11] 3.2708333333333641e+01
flow[sink_10,innode_2] -3.8511705689716756e+01
flow[sink_10,innode_3] -3.6705849381743327e+01
flow[innode_6,sink_25] -6.5532782618735759e+00
flow[sink_11,innode_1] 1.6354166666666970e+01
flow[sink_19,innode_2] 3.8511705689716756e+01
flow[source_3,innode_4] 1.0792588840479317e+02
flow[source_2,innode_7] 1.2476407201373502e+02
flow[sink_3,innode_8] 1.1498700151962576e+02
pressure[innode_1] 77.1500892956794
pressure[innode_2] 7.9337293307538232e+01
pressure[innode_3] 7.9256012360568789e+01
pressure[innode_4] 81.01325
pressure[innode_5] 8.0967468545338335e+01
pressure[innode_6] 7.6083280827170555e+01
pressure[innode_7] 81.01325
pressure[innode_8] 8.0519560917249521e+01
pressure[source_1] 81.01325
pressure[source_2] 81.01325
pressure[source_3] 81.01325
pressure[sink_1] 1.0132500000000002e+00
pressure[sink_2] 7.6472882214870339e+01
pressure[sink_3] 8.0519560917249521e+01
pressure[sink_4] 4.8244864051172584e+01
pressure[sink_5] 2.3967480045365456e+01
pressure[sink_6] 1.3018341778953881e+00
pressure[sink_7] 1.7996108972455638e+00
pressure[sink_8] 3.2401750027311273e+01
pressure[sink_9] 1.0132500000000002e+00
pressure[sink_10] 7.7301790603282939e+01
pressure[sink_11] 77.1500892956794
pressure[sink_12] 1.01325
pressure[sink_13] 7.6047153699267383e+01
pressure[sink_14] 7.6064693223918852e+01
pressure[sink_15] 7.6371173572511424e+01
pressure[sink_16] 7.6128439460861713e+01
pressure[sink_17] 2.9156358137465659e+01
pressure[sink_18] 1.0132499999999509e+00
pressure[sink_19] 7.9337293307538232e+01
pressure[sink_20] 3.9535113445227296e+01
pressure[sink_21] 1.01325
pressure[sink_22] 1.0132500000000002e+00
pressure[sink_23] 8.0354842905589734e+01
pressure[sink_24] 1.01325
pressure[sink_25] 7.6083280827170555e+01
pressure[sink_26] 6.5418368825989589e+01
pressure[sink_27] 8.0415167940862347e+01
pressure[sink_28] 7.7381017562705992e+01
pressure[sink_29] 7.7676299836323167e+01
interdiction[source_1,sink_3] 0
interdiction[innode_1,sink_16] 0
interdiction[innode_6,sink_13] 0
interdiction[sink_13,sink_14] 0
interdiction[sink_14,sink_10] 0
interdiction[sink_25,sink_26] 0
interdiction[sink_26,sink_9] 1
interdiction[sink_9,sink_18] 0
interdiction[sink_26,sink_4] 0
interdiction[sink_4,sink_20] 0
interdiction[sink_18,sink_6] 0
interdiction[sink_25,innode_8] 0
interdiction[sink_6,sink_7] 0
interdiction[sink_6,sink_22] 0
interdiction[sink_7,sink_24] 0
interdiction[sink_22,sink_1] 0
interdiction[sink_24,sink_21] 0
interdiction[sink_21,sink_12] 0
interdiction[sink_7,sink_5] 0
interdiction[sink_5,sink_17] 0
interdiction[sink_17,sink_4] 1
interdiction[sink_17,sink_8] 0
interdiction[sink_3,sink_23] 0
interdiction[sink_8,sink_20] 0
interdiction[sink_25,sink_20] 1
interdiction[sink_25,sink_15] 0
interdiction[sink_15,sink_29] 0
interdiction[sink_29,sink_28] 0
interdiction[sink_29,sink_2] 0
interdiction[sink_2,sink_15] 0
interdiction[sink_29,innode_7] 0
interdiction[innode_4,sink_19] 0
interdiction[sink_19,innode_3] 0
interdiction[innode_4,innode_5] 0
interdiction[sink_27,innode_5] 0
interdiction[sink_27,sink_19] 0
interdiction[sink_10,sink_11] 0
interdiction[sink_10,innode_2] 0
interdiction[sink_10,innode_3] 0
interdiction[innode_6,sink_25] 0
interdiction[sink_11,innode_1] 0
interdiction[sink_19,innode_2] 0
interdiction[source_3,innode_4] 0
interdiction[source_2,innode_7] 0
interdiction[sink_3,innode_8] 0
WCcheckFlow[source_1,sink_3] 39
WCcheckFlow[innode_1,sink_16] 1
WCcheckFlow[innode_6,sink_13] 13
WCcheckFlow[sink_13,sink_14] 12
WCcheckFlow[sink_14,sink_10] 11
WCcheckFlow[sink_25,sink_26] 15
WCcheckFlow[sink_26,sink_9] 0
WCcheckFlow[sink_9,sink_18] -1
WCcheckFlow[sink_26,sink_4] 14
WCcheckFlow[sink_4,sink_20] 13
WCcheckFlow[sink_18,sink_6] -2
WCcheckFlow[sink_25,innode_8] -36
WCcheckFlow[sink_6,sink_7] -5
WCcheckFlow[sink_6,sink_22] 2
WCcheckFlow[sink_7,sink_24] 3
WCcheckFlow[sink_22,sink_1] 1
WCcheckFlow[sink_24,sink_21] 2
WCcheckFlow[sink_21,sink_12] 1
WCcheckFlow[sink_7,sink_5] -9
WCcheckFlow[sink_5,sink_17] -10
WCcheckFlow[sink_17,sink_4] 0
WCcheckFlow[sink_17,sink_8] -11
WCcheckFlow[sink_3,sink_23] 1
WCcheckFlow[sink_8,sink_20] -12
WCcheckFlow[sink_25,sink_20] 0
WCcheckFlow[sink_25,sink_15] 6
WCcheckFlow[sink_15,sink_29] 5
WCcheckFlow[sink_29,sink_28] 1
WCcheckFlow[sink_29,sink_2] 1
WCcheckFlow[sink_2,sink_15] 0
WCcheckFlow[sink_29,innode_7] 2
WCcheckFlow[innode_4,sink_19] -4
WCcheckFlow[sink_19,innode_3] -5
WCcheckFlow[innode_4,innode_5] 2
WCcheckFlow[sink_27,innode_5] -1
WCcheckFlow[sink_27,sink_19] 0
WCcheckFlow[sink_10,sink_11] 3
WCcheckFlow[sink_10,innode_2] 1
WCcheckFlow[sink_10,innode_3] 6
WCcheckFlow[innode_6,sink_25] -14
WCcheckFlow[sink_11,innode_1] 2
WCcheckFlow[sink_19,innode_2] 0
WCcheckFlow[source_3,innode_4] -1
WCcheckFlow[source_2,innode_7] -1
WCcheckFlow[sink_3,innode_8] 37
